\ This file has been generated by DOcplex
\ ENCODING=ISO-8859-1
\Problem name: random_problem.lp

Minimize
 obj: - 4 x0 - 2 x1 + 3 x2 - 4 x3 + 3 x4 + 10 x5 - 4 x6 + 3 x7 - 5 x8 - 3 x9
      - 10 x10 - 3 x11 - 4 x12 - x13 - 9 x14 + 5 x15 + 6 x16 - x18 + 10 x19
      + 8 x20 - 3 x22 + 9 x23 - 8 x24 + 2 x25 + 5 x26 - x27 - 9 x28 - 7 x29
      + 10 x30 + 2 x31 - 5 x32 + 8 x33 + 3 x34 - x35 - 4 x36 + 2 x37 - 7 x38
      - 9 x39 - 7 x41 + 8 x42 + 8 x43 - 2 x44 + 5 x45 - 9 x46 - x47 + x48
      - 2 x49 + [ - 20 x0*x7 + 4 x0*x15 - 6 x0*x18 + 14 x0*x21 - 8 x0*x24
      - 2 x0*x27 - 16 x0*x29 + 20 x0*x32 - 20 x0*x33 + 4 x0*x39 - 14 x1*x10
      - 12 x1*x12 + 20 x1*x13 - 16 x1*x20 + 6 x1*x26 - 20 x1*x28 - 20 x1*x40
      + 6 x1*x43 + 16 x1*x46 - 2 x1*x47 - 2 x2*x5 - 10 x2*x9 + 8 x2*x11
      - 20 x2*x18 + 6 x2*x19 - 8 x2*x29 - 20 x2*x31 + 18 x2*x33 + 14 x2*x39
      + 16 x2*x48 + 14 x3*x17 + 20 x3*x19 - 6 x3*x21 + 10 x3*x24 + 14 x3*x27
      - 14 x3*x28 + 20 x3*x41 - 2 x3*x42 + 14 x3*x44 + 2 x3*x49 - 8 x4*x8
      + 4 x4*x11 - 14 x4*x14 + 18 x4*x18 - 8 x4*x25 + 2 x4*x28 - 18 x4*x29
      - 10 x4*x31 + 2 x4*x33 + 14 x4*x44 - 20 x5*x10 + 20 x5*x13 - 8 x5*x15
      - 18 x5*x29 + 10 x5*x35 - 16 x5*x38 - 16 x5*x40 + 18 x5*x43 + 4 x5*x44
      + 14 x6*x16 + 14 x6*x22 - 12 x6*x23 - 4 x6*x24 + 6 x6*x25 + 14 x6*x34
      - 6 x6*x39 - 16 x6*x45 - 2 x6*x46 - 2 x6*x49 - 10 x7*x8 + 4 x7*x13
      - 20 x7*x23 + 6 x7*x30 - 2 x7*x34 - 16 x7*x35 - 6 x7*x45 + 12 x7*x48
      - 8 x7*x49 + 4 x8*x10 + 18 x8*x17 + 12 x8*x19 + 20 x8*x20 - 20 x8*x22
      - 2 x8*x30 + 14 x8*x40 - 4 x8*x49 - 16 x9*x16 - 6 x9*x19 + 10 x9*x20
      - 18 x9*x22 + 20 x9*x25 + 18 x9*x29 + 8 x9*x30 + 10 x9*x33 - 12 x9*x47
      + 10 x10*x17 - 20 x10*x21 + 18 x10*x22 + 20 x10*x36 - 10 x10*x38
      + 20 x10*x47 + 18 x10*x48 + 2 x11*x13 - 6 x11*x16 - 16 x11*x19 - 6 x11*x24
      + 20 x11*x27 + 20 x11*x36 - 4 x11*x40 - 2 x11*x42 - 20 x12*x15
      - 12 x12*x18 + 4 x12*x21 - 6 x12*x23 + 2 x12*x24 - 16 x12*x31 - 2 x12*x35
      - 20 x12*x41 + 2 x12*x48 + 10 x13*x15 + 10 x13*x16 + 8 x13*x39
      - 12 x13*x41 + 8 x13*x42 + 8 x13*x46 - 2 x14*x17 - 10 x14*x19 + 8 x14*x22
      - 20 x14*x27 - 4 x14*x29 + 6 x14*x31 - 20 x14*x32 + 14 x14*x43 + 4 x14*x49
      + 16 x15*x25 + 18 x15*x28 - 16 x15*x34 + 18 x15*x36 - 12 x15*x39
      - 14 x15*x49 - 2 x16*x20 - 16 x16*x23 + 6 x16*x24 + 14 x16*x32
      + 20 x16*x46 + 14 x16*x48 + 16 x17*x19 - 14 x17*x21 + 10 x17*x30
      + 14 x17*x35 + 8 x17*x37 - 20 x17*x40 + 2 x18*x22 - 14 x18*x31 + 8 x18*x33
      + 14 x18*x37 + 18 x18*x40 + 6 x18*x48 + 8 x19*x32 + 16 x19*x37 + 8 x19*x43
      - 12 x20*x27 + 14 x20*x29 - 8 x20*x36 + 4 x20*x40 + 12 x20*x46 + 2 x20*x48
      + 10 x21*x25 - 12 x21*x29 - 12 x21*x34 + 16 x21*x41 + 6 x21*x45
      + 14 x22*x26 - 2 x22*x34 + 12 x22*x44 - 16 x22*x47 - 12 x23*x28
      - 16 x23*x30 - 12 x23*x37 - 8 x23*x39 - 12 x23*x41 + 20 x23*x44
      + 16 x24*x31 + 10 x24*x38 + 12 x24*x40 - 20 x24*x41 + 20 x25*x27
      + 8 x25*x30 + 2 x25*x32 - 20 x25*x34 + 10 x25*x41 + 20 x26*x29 + 8 x26*x32
      + 18 x26*x33 - 20 x26*x39 + 18 x26*x42 - 18 x26*x45 + 16 x26*x46
      + 18 x26*x47 + 16 x27*x28 - 16 x27*x31 + 10 x27*x38 - 4 x27*x45
      + 10 x28*x30 - 18 x28*x34 + 4 x28*x35 - 10 x28*x43 + 6 x29*x40
      + 16 x30*x32 - 2 x30*x36 + 6 x30*x43 - 16 x31*x34 - 6 x31*x40 + 8 x31*x43
      - 14 x32*x33 - 2 x32*x38 - 10 x32*x39 - 12 x33*x35 - 8 x33*x48
      + 18 x33*x49 + 10 x34*x37 - 6 x34*x47 + 20 x35*x36 + 14 x35*x42
      - 4 x35*x45 + 18 x35*x47 - 8 x36*x39 - 4 x36*x41 + 20 x36*x45 + 4 x36*x48
      + 14 x37*x38 - 20 x37*x42 - 18 x37*x43 + 2 x37*x44 - 14 x37*x47
      + 14 x38*x41 - 4 x38*x45 - 16 x38*x48 + 14 x38*x49 - 10 x39*x46
      + 16 x41*x45 + 2 x42*x43 - 20 x42*x44 + 18 x42*x45 - 6 x42*x49 - 8 x43*x44
      + 20 x44*x46 - 2 x44*x49 + 4 x46*x47 ]/2
Subject To
 c0: - 2 x1 - 2 x9 + 2 x11 + x16 + x18 + x20 - 2 x38 - x41 + x42 - 2 x48 = -1
 c1: - 2 x1 - x2 + 2 x8 - 2 x11 - x12 - 2 x15 + x23 - x33 - 2 x44 + 2 x47 = 0
 c2: 2 x1 - x5 + 2 x12 - x16 - x25 + 2 x27 - x32 + x34 - 2 x41 + x44 = 1
 c3: - 2 x2 - x4 - x6 + x14 + x18 + x30 + x31 - x38 + 2 x43 - x44 = -1
 c4: - x3 - x9 + x20 + 2 x23 + 2 x27 - x29 - 2 x34 - 2 x36 - x46 + x48 = 0
 c5: - 2 x6 - 2 x8 + 2 x12 + 2 x14 + 2 x26 - 2 x27 + x33 - x36 - 2 x41 - 2 x42
      = 0
 c6: - x1 + 2 x6 - x8 - x21 + x26 - 2 x27 - x31 + 2 x39 - 2 x40 + 2 x42 = 1
 c7: x9 + 2 x11 + 2 x14 + x19 + 2 x20 - 2 x21 + 2 x24 + x29 + 2 x32 + 2 x45 = 0
 c8: 2 x2 - 2 x3 + x10 + x19 + 2 x29 + 2 x32 + x34 + 2 x38 + x42 - 2 x45 = -2
 c9: x0 - x10 - 2 x11 + x18 + 2 x19 - x24 - x29 + x30 + 2 x31 - x48 = -2

Bounds
 0 <= x0 <= 1
 0 <= x1 <= 1
 0 <= x2 <= 1
 0 <= x3 <= 1
 0 <= x4 <= 1
 0 <= x5 <= 1
 0 <= x6 <= 1
 0 <= x7 <= 1
 0 <= x8 <= 1
 0 <= x9 <= 1
 0 <= x10 <= 1
 0 <= x11 <= 1
 0 <= x12 <= 1
 0 <= x13 <= 1
 0 <= x14 <= 1
 0 <= x15 <= 1
 0 <= x16 <= 1
 0 <= x17 <= 1
 0 <= x18 <= 1
 0 <= x19 <= 1
 0 <= x20 <= 1
 0 <= x21 <= 1
 0 <= x22 <= 1
 0 <= x23 <= 1
 0 <= x24 <= 1
 0 <= x25 <= 1
 0 <= x26 <= 1
 0 <= x27 <= 1
 0 <= x28 <= 1
 0 <= x29 <= 1
 0 <= x30 <= 1
 0 <= x31 <= 1
 0 <= x32 <= 1
 0 <= x33 <= 1
 0 <= x34 <= 1
 0 <= x35 <= 1
 0 <= x36 <= 1
 0 <= x37 <= 1
 0 <= x38 <= 1
 0 <= x39 <= 1
 0 <= x40 <= 1
 0 <= x41 <= 1
 0 <= x42 <= 1
 0 <= x43 <= 1
 0 <= x44 <= 1
 0 <= x45 <= 1
 0 <= x46 <= 1
 0 <= x47 <= 1
 0 <= x48 <= 1
 0 <= x49 <= 1

Binaries
 x0 x1 x2 x3 x4 x5 x6 x7 x8 x9 x10 x11 x12 x13 x14 x15 x16 x17 x18 x19 x20 x21
 x22 x23 x24 x25 x26 x27 x28 x29 x30 x31 x32 x33 x34 x35 x36 x37 x38 x39 x40 x41
 x42 x43 x44 x45 x46 x47 x48 x49
End
